benchmarks_CP/INST_36x36/45/inst36x36_45_44.dzn
S=6;
start=[|
-1,	9,	-1,	-1,	-1,	-1,	35,	10,	-1,	-1,	-1,	-1,	-1,	16,	4,	17,	-1,	23,	25,	-1,	-1,	-1,	13,	-1,	11,	-1,	-1,	-1,	-1,	-1,	-1,	12,	-1,	32,	-1,	-1|
-1,	-1,	-1,	-1,	4,	13,	29,	-1,	-1,	11,	34,	-1,	-1,	26,	1,	-1,	36,	-1,	-1,	3,	-1,	2,	-1,	10,	17,	25,	-1,	-1,	-1,	30,	-1,	23,	27,	-1,	15,	-1|
-1,	-1,	-1,	-1,	-1,	-1,	25,	-1,	-1,	-1,	-1,	-1,	-1,	35,	-1,	-1,	8,	11,	-1,	31,	-1,	-1,	30,	-1,	-1,	-1,	-1,	5,	27,	32,	20,	-1,	-1,	-1,	-1,	-1|
23,	-1,	-1,	-1,	3,	-1,	-1,	8,	36,	-1,	-1,	5,	-1,	19,	-1,	-1,	28,	-1,	-1,	-1,	-1,	16,	-1,	14,	-1,	35,	6,	-1,	-1,	-1,	-1,	-1,	31,	-1,	25,	7|
-1,	-1,	30,	-1,	35,	-1,	4,	32,	17,	-1,	-1,	-1,	27,	-1,	-1,	33,	-1,	-1,	-1,	-1,	-1,	-1,	1,	-1,	-1,	23,	7,	24,	-1,	-1,	11,	26,	-1,	-1,	-1,	-1|
12,	11,	-1,	18,	-1,	25,	-1,	15,	-1,	26,	-1,	-1,	-1,	6,	-1,	20,	-1,	7,	22,	-1,	-1,	23,	-1,	32,	-1,	13,	-1,	-1,	-1,	31,	21,	-1,	-1,	17,	-1,	-1|
-1,	-1,	23,	-1,	14,	-1,	-1,	6,	-1,	36,	-1,	-1,	-1,	-1,	22,	35,	27,	-1,	-1,	-1,	-1,	-1,	18,	-1,	19,	-1,	25,	7,	-1,	-1,	31,	32,	-1,	-1,	8,	-1|
27,	8,	-1,	5,	-1,	-1,	10,	9,	-1,	-1,	18,	-1,	-1,	28,	6,	-1,	-1,	-1,	-1,	-1,	-1,	-1,	-1,	-1,	-1,	-1,	-1,	-1,	-1,	-1,	-1,	-1,	-1,	-1,	-1,	-1|
-1,	1,	19,	-1,	-1,	-1,	26,	-1,	5,	2,	-1,	4,	8,	18,	-1,	-1,	17,	3,	-1,	7,	6,	-1,	22,	-1,	-1,	30,	9,	23,	28,	-1,	33,	25,	-1,	24,	-1,	20|
3,	-1,	25,	-1,	6,	9,	7,	19,	8,	21,	-1,	-1,	-1,	-1,	31,	-1,	26,	-1,	4,	-1,	-1,	-1,	5,	2,	-1,	-1,	-1,	-1,	-1,	-1,	12,	1,	-1,	18,	-1,	10|
36,	33,	28,	12,	31,	34,	22,	25,	24,	15,	29,	3,	30,	20,	-1,	11,	-1,	-1,	-1,	14,	-1,	1,	-1,	-1,	-1,	-1,	18,	27,	-1,	10,	-1,	-1,	-1,	-1,	-1,	35|
-1,	-1,	-1,	22,	10,	20,	-1,	27,	-1,	31,	32,	14,	-1,	21,	-1,	-1,	19,	9,	-1,	-1,	29,	-1,	-1,	-1,	24,	4,	1,	12,	8,	-1,	-1,	30,	-1,	36,	7,	-1|
13,	-1,	-1,	19,	-1,	4,	-1,	1,	18,	-1,	-1,	10,	25,	27,	-1,	-1,	2,	-1,	14,	6,	-1,	-1,	-1,	-1,	12,	34,	11,	-1,	-1,	24,	-1,	33,	17,	-1,	-1,	36|
-1,	12,	14,	-1,	-1,	-1,	-1,	-1,	-1,	-1,	-1,	-1,	31,	24,	10,	4,	9,	-1,	26,	15,	19,	5,	23,	29,	-1,	16,	-1,	-1,	22,	-1,	-1,	-1,	-1,	7,	-1,	-1|
-1,	6,	-1,	25,	-1,	-1,	-1,	17,	4,	-1,	-1,	-1,	-1,	30,	5,	-1,	11,	-1,	-1,	22,	-1,	36,	-1,	35,	10,	31,	-1,	-1,	14,	-1,	-1,	-1,	28,	9,	-1,	-1|
-1,	-1,	24,	36,	28,	-1,	-1,	11,	-1,	-1,	2,	12,	21,	-1,	20,	-1,	-1,	-1,	32,	-1,	-1,	-1,	16,	-1,	-1,	-1,	-1,	19,	33,	-1,	-1,	-1,	-1,	35,	-1,	15|
9,	3,	15,	8,	-1,	29,	-1,	-1,	-1,	-1,	-1,	26,	-1,	-1,	35,	14,	-1,	19,	-1,	-1,	-1,	17,	-1,	21,	-1,	32,	4,	6,	-1,	-1,	2,	34,	-1,	5,	12,	-1|
21,	16,	35,	-1,	-1,	1,	-1,	-1,	15,	-1,	14,	-1,	13,	-1,	23,	32,	-1,	-1,	18,	33,	20,	8,	-1,	-1,	-1,	-1,	26,	25,	-1,	-1,	30,	24,	4,	10,	29,	-1|
33,	-1,	1,	-1,	2,	11,	-1,	-1,	-1,	-1,	-1,	-1,	32,	-1,	-1,	3,	10,	20,	16,	-1,	28,	-1,	12,	-1,	-1,	19,	-1,	14,	36,	8,	29,	-1,	26,	-1,	18,	5|
6,	-1,	-1,	-1,	12,	-1,	34,	14,	-1,	9,	-1,	-1,	33,	1,	-1,	-1,	23,	-1,	-1,	-1,	-1,	-1,	21,	17,	-1,	24,	30,	18,	-1,	5,	28,	-1,	35,	31,	11,	22|
22,	-1,	8,	4,	24,	-1,	3,	-1,	-1,	10,	17,	36,	6,	-1,	28,	13,	-1,	-1,	33,	1,	14,	-1,	-1,	11,	-1,	-1,	-1,	-1,	-1,	-1,	25,	20,	12,	19,	32,	-1|
15,	32,	-1,	-1,	-1,	-1,	-1,	2,	-1,	33,	16,	-1,	7,	17,	-1,	-1,	-1,	-1,	6,	-1,	3,	-1,	-1,	23,	1,	-1,	-1,	28,	-1,	25,	-1,	27,	-1,	21,	-1,	8|
10,	-1,	-1,	28,	-1,	18,	-1,	4,	20,	32,	8,	-1,	-1,	11,	29,	15,	25,	35,	-1,	-1,	-1,	19,	2,	-1,	22,	6,	-1,	-1,	-1,	-1,	24,	9,	-1,	14,	-1,	-1|
29,	-1,	-1,	-1,	25,	27,	-1,	5,	-1,	28,	11,	-1,	16,	12,	9,	19,	-1,	30,	-1,	24,	-1,	-1,	-1,	-1,	3,	-1,	31,	10,	34,	26,	4,	7,	6,	2,	-1,	-1|
-1,	34,	-1,	-1,	1,	35,	8,	36,	12,	22,	31,	28,	-1,	14,	25,	-1,	-1,	-1,	-1,	18,	-1,	33,	-1,	3,	-1,	27,	-1,	13,	24,	17,	7,	-1,	-1,	-1,	-1,	-1|
-1,	19,	-1,	-1,	-1,	23,	14,	-1,	-1,	-1,	5,	-1,	26,	-1,	7,	28,	-1,	-1,	34,	21,	11,	-1,	-1,	4,	36,	-1,	-1,	-1,	-1,	-1,	10,	-1,	22,	25,	-1,	18|
-1,	30,	-1,	-1,	-1,	-1,	21,	-1,	3,	-1,	19,	-1,	-1,	-1,	-1,	10,	33,	-1,	1,	29,	-1,	-1,	-1,	-1,	-1,	18,	-1,	-1,	25,	-1,	-1,	35,	20,	-1,	-1,	31|
-1,	4,	7,	-1,	32,	-1,	-1,	26,	34,	-1,	-1,	11,	-1,	-1,	-1,	22,	-1,	-1,	19,	-1,	35,	15,	-1,	28,	21,	-1,	-1,	-1,	31,	-1,	-1,	14,	33,	-1,	30,	-1|
25,	22,	-1,	10,	15,	14,	-1,	35,	2,	27,	-1,	-1,	29,	-1,	12,	-1,	-1,	5,	-1,	9,	-1,	31,	-1,	-1,	16,	-1,	-1,	-1,	-1,	-1,	-1,	-1,	-1,	-1,	-1,	-1|
20,	-1,	36,	31,	-1,	-1,	6,	-1,	10,	-1,	15,	33,	17,	13,	3,	-1,	4,	8,	24,	-1,	-1,	-1,	26,	-1,	-1,	14,	35,	22,	-1,	-1,	-1,	5,	-1,	1,	-1,	-1|
35,	-1,	-1,	23,	-1,	-1,	-1,	12,	-1,	34,	4,	15,	-1,	36,	-1,	-1,	-1,	31,	-1,	32,	21,	9,	11,	-1,	-1,	33,	10,	1,	-1,	-1,	26,	6,	-1,	30,	5,	-1|
-1,	36,	-1,	-1,	-1,	12,	-1,	29,	-1,	35,	10,	-1,	-1,	-1,	-1,	-1,	-1,	6,	5,	-1,	31,	26,	-1,	22,	-1,	-1,	24,	30,	-1,	-1,	18,	-1,	15,	-1,	-1,	4|
-1,	-1,	-1,	-1,	-1,	2,	13,	-1,	-1,	16,	-1,	-1,	-1,	-1,	-1,	5,	-1,	12,	-1,	36,	-1,	20,	-1,	25,	-1,	-1,	-1,	-1,	23,	-1,	-1,	-1,	-1,	-1,	-1,	14|
28,	-1,	4,	-1,	-1,	-1,	-1,	-1,	-1,	5,	-1,	-1,	-1,	29,	26,	7,	-1,	-1,	-1,	-1,	-1,	-1,	14,	-1,	-1,	-1,	22,	-1,	-1,	-1,	-1,	13,	-1,	11,	-1,	-1|
14,	-1,	-1,	-1,	19,	3,	18,	-1,	26,	1,	-1,	6,	11,	25,	-1,	27,	13,	4,	23,	-1,	16,	34,	-1,	-1,	-1,	36,	15,	32,	-1,	35,	-1,	-1,	24,	-1,	-1,	-1|
5,	-1,	11,	34,	-1,	-1,	-1,	22,	21,	-1,	23,	-1,	-1,	10,	17,	18,	24,	-1,	-1,	-1,	13,	-1,	-1,	-1,	-1,	-1,	8,	26,	-1,	-1,	35,	-1,	-1,	-1,	-1,	25|];
